21
8760 6514
1939 437
380 292
591 6808
2293 8820
1190 5309
978 2096
9156 7569
8999 7639
8470 7205
2110 788
3874 8322
528 2029
1999 3634
1141 9741
3052 2837
1677 1844
490 8661
6066 4036
9668 8702
6979 3424
